(set-logic ALL)
(declare-fun seed0_ts1uscore10 () Real)
(declare-fun seed0_v () Real)
(declare-fun seed0_t1uscore0dollarskuscore10 () Real)
(declare-fun seed0_huscore2dollarskuscore10 () Real)
(declare-fun seed0_h () Real)
(declare-fun seed0_vuscore2dollarskuscore10 () Real)
(declare-fun seed0_tuscore2dollarskuscore10 () Real)
(assert (and (forall ((seed0_Q1_ts1uscore10 Real)) (and (and (and (and (and (and (and (and (and (or (or (not (<= 0 seed0_Q1_ts1uscore10)) (not (<= seed0_Q1_ts1uscore10 seed0_t1uscore0dollarskuscore10))) (>= (+ (+ seed0_huscore2dollarskuscore10 (* (- 5) (* seed0_Q1_ts1uscore10 seed0_Q1_ts1uscore10))) (* seed0_Q1_ts1uscore10 seed0_vuscore2dollarskuscore10)) 0)) (>= seed0_t1uscore0dollarskuscore10 0)) (= seed0_huscore2dollarskuscore10 (+ (* 5 (* seed0_tuscore2dollarskuscore10 seed0_tuscore2dollarskuscore10)) (* seed0_vuscore2dollarskuscore10 seed0_tuscore2dollarskuscore10)))) (>= seed0_huscore2dollarskuscore10 0)) (>= seed0_tuscore2dollarskuscore10 0)) (<= seed0_vuscore2dollarskuscore10 (+ (* (- 10) seed0_tuscore2dollarskuscore10) 16))) (<= seed0_tuscore2dollarskuscore10 (/ 16 5))) (= seed0_h 0)) (= seed0_v 16)) (and (not (= (+ (+ seed0_huscore2dollarskuscore10 (* (- 5) (* seed0_t1uscore0dollarskuscore10 seed0_t1uscore0dollarskuscore10))) (* seed0_t1uscore0dollarskuscore10 seed0_vuscore2dollarskuscore10)) 0)) (not (<= (+ seed0_t1uscore0dollarskuscore10 seed0_tuscore2dollarskuscore10) (/ 16 5)))))) (or (> (* seed0_h seed0_huscore2dollarskuscore10) (/ seed0_ts1uscore10 seed0_v)) (distinct (- seed0_huscore2dollarskuscore10 seed0_huscore2dollarskuscore10) (* seed0_t1uscore0dollarskuscore10 seed0_t1uscore0dollarskuscore10)))))
(check-sat)
(exit)